
===== New CPLEX run =====
Instance: /home/yorig/tuner/mpils-tests/instances/miplib/medium-1/neos-3024952-loue.mps
Config: /scratch/yorig/mpils-results-grid-seconds-10-no-mip-start/medium-1/4proc/seed-1/9_neos-3024952-loue_seed-1_20260503_044429/expansion/config_param_CPXPARAM_Advance_0_iter_4.prm
========================

Selected objective sense:  MINIMIZE
Selected objective  name:  R3706
Selected RHS        name:  B
Selected bound      name:  BOUND
Version identifier: 22.1.2.0 | 2024-11-26 | 0edbb82fd
CPXPARAM_Advance                                 0
CPXPARAM_Threads                                 8
CPXPARAM_Parallel                                1
CPXPARAM_MIP_Cuts_Cliques                        -1
CPXPARAM_MIP_Limits_GomoryCand                   50
CPXPARAM_MIP_Cuts_PathCut                        1
CPXPARAM_MIP_Cuts_MIRCut                         2
CPXPARAM_MIP_Cuts_Disjunctive                    1
CPXPARAM_MIP_Limits_AggForCut                    10
CPXPARAM_Emphasis_MIP                            4
CPXPARAM_MIP_Strategy_Dive                       1
CPXPARAM_TimeLimit                               10
Tried aggregator 2 times.
MIP Presolve eliminated 40 rows and 0 columns.
MIP Presolve modified 80 coefficients.
Aggregator did 32 substitutions.
Reduced MIP has 3633 rows, 3223 columns, and 15906 nonzeros.
Reduced MIP has 0 binaries, 3223 generals, 0 SOSs, and 0 indicators.
Presolve time = 0.01 sec. (7.72 ticks)
Tried aggregator 1 time.
Detecting symmetries...
Reduced MIP has 3633 rows, 3223 columns, and 15906 nonzeros.
Reduced MIP has 0 binaries, 3223 generals, 0 SOSs, and 0 indicators.
Presolve time = 0.01 sec. (8.53 ticks)
MIP emphasis: hidden feasible solutions.
MIP search method: dynamic search.
Parallel mode: deterministic, using up to 8 threads.
Root relaxation solution time = 0.14 sec. (166.79 ticks)

        Nodes                                         Cuts/
   Node  Left     Objective  IInf  Best Integer    Best Bound    ItCnt     Gap

      0     0    22882.0000   397                  22882.0000     3901         
      0     0    23571.3985   699                   Cuts: 446     4327         
      0     0    23671.2988   816                   Cuts: 291     4480         
      0     0    23787.6152  1035                   Cuts: 273     4596         
      0     0    23804.2762   888                   Cuts: 286     4697         
      0     0    23863.6262  1066                   Cuts: 267     4798         
Detecting symmetries...
      0     0    24034.5562  1005                   Cuts: 311     4972         
      0     0    24222.8032  1076                   Cuts: 289     5103         
      0     0    24492.8020   935                   Cuts: 252     5237         
      0     0    24855.9620  1081                   Cuts: 213     5397         
      0     0    25112.5006   992                   Cuts: 190     5534         
      0     0    25352.3636   885                   Cuts: 191     5664         
      0     0    25463.8509  1148                   Cuts: 152     5744         
      0     0    25509.0672  1197                   Cuts: 124     5831         
      0     0    25571.0694  1344                    Cuts: 89     5898         
      0     0    25796.4614  1172                    Cuts: 66     6007         
      0     0    25909.4715  1172                    Cuts: 83     6072         
      0     0    25944.4827  1467                    Cuts: 60     6122         
      0     0    26032.9909  1290                    Cuts: 53     6199         
      0     0    26037.6722  1214                    Cuts: 38     6234         
      0     0    26083.0787  1138                    Cuts: 32     6267         
      0     0    26088.6489  1166                    Cuts: 25     6299         
      0     0    26124.7234  1178                    Cuts: 26     6330         
      0     0    26132.2736  1263                    Cuts: 21     6354         
      0     0    26133.3343  1194                    Cuts: 14     6384         
      0     0    26146.6238   938                    Cuts: 14     6395         
      0     0    26149.9571   942                    Cuts: 18     6407         
      0     0    26173.3747   951                     Cuts: 8     6427         
      0     0    26174.0733   980                    Cuts: 11     6431         
Detecting symmetries...
      0     2    26174.0733   980                  26174.0733     6431         
Elapsed time = 4.70 sec. (3065.73 ticks, tree = 0.02 MB, solutions = 0)
    570   525    26323.2195   956                  26174.0733     9984         
   1294  1002    26475.5361   824                  26174.0733    13443         
   2375  2163    27266.6429   541                  26174.0733    22213         
*  3726  3403      integral     0    29966.0000    26174.0733    31979   12.65%
*  3761+ 3377                        29656.0000    26174.0733            11.74%
   3835  3611    29198.4444   108    29656.0000    26174.0733    33361   11.74%
*  4398+ 3857                        28708.0000    26174.0733             8.83%
   4398  3856    28708.0000     0    28708.0000    26174.0733    35875    8.83%
*  4498+ 3581                        28678.0000    26174.0733             8.73%
   4520  3594    26525.5903   895    28678.0000    26174.0733    38229    8.73%
   4598  4108    26213.5119   663    28678.0000    26174.0733    37350    8.73%
   4989  3972    26847.5304   752    28678.0000    26174.0733    40961    8.73%
*  5180+ 4120                        28216.0000    26174.0733             7.24%
*  5180+ 4120                        27926.0000    26174.0733             6.27%
   5180  3999    26221.4430  1005    27926.0000    26174.0733    36770    6.27%

Performing restart 1

Repeating presolve.
Tried aggregator 1 time.
MIP Presolve modified 16 coefficients.
Reduced MIP has 3633 rows, 3223 columns, and 15892 nonzeros.
Reduced MIP has 0 binaries, 3223 generals, 0 SOSs, and 0 indicators.
Presolve time = 0.00 sec. (6.35 ticks)
Tried aggregator 1 time.
Reduced MIP has 3633 rows, 3223 columns, and 15892 nonzeros.
Reduced MIP has 0 binaries, 3223 generals, 0 SOSs, and 0 indicators.
Presolve time = 0.01 sec. (8.81 ticks)
Represolve time = 0.04 sec. (41.88 ticks)
   5183     0    26204.6210   768    27926.0000      Cuts: 97    50777    6.16%
   5183     0    26217.1281   721    27926.0000      Cuts: 29    50823    6.12%
*  5183+    0                        27580.0000    26217.1281             4.94%
   5183     0    26228.1783   795    27580.0000      Cuts: 32    50871    4.90%
   5183     0    26232.7671   806    27580.0000      Cuts: 35    50908    4.88%
   5183     0    26235.3185   813    27580.0000      Cuts: 14    50937    4.88%
   5183     0    26236.2320   789    27580.0000      Cuts: 12    50973    4.87%
   5183     0    26241.0470   754    27580.0000      Cuts: 19    50994    4.85%
   5183     0    26256.8544   844    27580.0000       Cuts: 9    51012    4.80%
   5183     0    26259.9540   873    27580.0000      Cuts: 10    51033    4.79%
   5183     0    26260.3431   845    27580.0000    MIRcuts: 3    51040    4.78%
   5183     0    26261.0481   732    27580.0000       Cuts: 2    51054    4.78%
   5183     0    26261.9814   794    27580.0000      Cuts: 22    51058    4.78%
   5183     0    26273.7807   864    27580.0000       Cuts: 9    51075    4.74%
Advanced basis not built.

Mixed integer rounding cuts applied:  301
Flow path cuts applied:  0
Zero-half cuts applied:  41
Gomory fractional cuts applied:  31
Disjunctive cuts applied:  0
Cone linearizations applied:  0

Root node processing (before b&c):
  Real time             =    4.55 sec. (3062.89 ticks)
Parallel b&c, 8 threads:
  Real time             =    5.45 sec. (4842.11 ticks)
  Sync time (average)   =    1.18 sec.
  Wait time (average)   =    0.00 sec.
                          ------------
Total (root+branch&cut) =   10.01 sec. (7905.00 ticks)
Gap: 4.74%
Upper bound: 27580
Lower bound: 26273.8
End of CPLEX run. Time: 10.0094 seconds
